p cnf 809 1715
1 2 0
3 2 0
4 2 0
-1 -3 -4 -2 0
-5 2 -6 0
5 -2 -6 0
6 -2 -5 0
5 2 6 0
-6 0
3 7 0
4 7 0
-3 -4 -7 0
7 -8 -9 0
8 -7 -9 0
9 -7 -8 0
8 7 9 0
-9 0
7 -10 -11 0
10 -7 -11 0
11 -7 -10 0
10 7 11 0
-11 0
12 13 0
14 13 0
15 13 0
-12 -14 -15 -13 0
13 -16 -17 0
16 -13 -17 0
17 -13 -16 0
16 13 17 0
-17 0
14 18 0
15 18 0
-14 -15 -18 0
18 -19 -20 0
19 -18 -20 0
20 -18 -19 0
19 18 20 0
-20 0
21 -15 0
15 -21 0
22 23 0
24 23 0
25 23 0
26 23 0
27 23 0
28 23 0
29 23 0
-30 0
23 -31 -32 0
31 -23 -32 0
32 -23 -31 0
31 23 32 0
-32 0
24 33 0
25 33 0
26 33 0
27 33 0
28 33 0
29 33 0
-34 0
33 -35 -36 0
35 -33 -36 0
36 -33 -35 0
35 33 36 0
-36 0
25 37 0
26 37 0
27 37 0
28 37 0
29 37 0
-38 0
37 -39 -40 0
39 -37 -40 0
40 -37 -39 0
39 37 40 0
-40 0
26 41 0
27 41 0
28 41 0
29 41 0
-42 0
41 -43 -44 0
43 -41 -44 0
44 -41 -43 0
43 41 44 0
-44 0
27 45 0
28 45 0
29 45 0
-27 -28 -29 -45 0
45 -46 -47 0
46 -45 -47 0
47 -45 -46 0
46 45 47 0
-47 0
45 -48 -49 0
48 -45 -49 0
49 -45 -48 0
48 45 49 0
-49 0
45 -50 -51 0
50 -45 -51 0
51 -45 -50 0
50 45 51 0
-51 0
52 53 0
54 53 0
55 53 0
-52 -54 -55 -53 0
53 -56 -57 0
56 -53 -57 0
57 -53 -56 0
56 53 57 0
-57 0
54 58 0
55 58 0
-54 -55 -58 0
58 -59 -60 0
59 -58 -60 0
60 -58 -59 0
59 58 60 0
-60 0
61 -55 0
55 -61 0
62 63 0
64 63 0
-62 -64 -63 0
63 -65 -66 0
65 -63 -66 0
66 -63 -65 0
65 63 66 0
-66 0
67 -64 0
64 -67 0
68 69 0
70 69 0
71 69 0
72 69 0
73 69 0
74 69 0
-75 0
69 -76 -77 0
76 -69 -77 0
77 -69 -76 0
76 69 77 0
-77 0
70 78 0
71 78 0
72 78 0
73 78 0
74 78 0
-79 0
78 -80 -81 0
80 -78 -81 0
81 -78 -80 0
80 78 81 0
-81 0
71 82 0
72 82 0
73 82 0
74 82 0
-83 0
82 -84 -85 0
84 -82 -85 0
85 -82 -84 0
84 82 85 0
-85 0
72 86 0
73 86 0
74 86 0
-72 -73 -74 -86 0
86 -87 -88 0
87 -86 -88 0
88 -86 -87 0
87 86 88 0
-88 0
86 -89 -90 0
89 -86 -90 0
90 -86 -89 0
89 86 90 0
-90 0
86 -91 -92 0
91 -86 -92 0
92 -86 -91 0
91 86 92 0
-92 0
93 94 0
95 94 0
96 94 0
97 94 0
98 94 0
-99 0
94 -100 -101 0
100 -94 -101 0
101 -94 -100 0
100 94 101 0
-101 0
95 102 0
96 102 0
97 102 0
98 102 0
-103 0
102 -104 -105 0
104 -102 -105 0
105 -102 -104 0
104 102 105 0
-105 0
96 106 0
97 106 0
98 106 0
-96 -97 -98 -106 0
106 -107 -108 0
107 -106 -108 0
108 -106 -107 0
107 106 108 0
-108 0
106 -109 -110 0
109 -106 -110 0
110 -106 -109 0
109 106 110 0
-110 0
106 -111 -112 0
111 -106 -112 0
112 -106 -111 0
111 106 112 0
-112 0
113 114 0
115 114 0
116 114 0
117 114 0
118 114 0
119 114 0
120 114 0
-121 0
114 -122 -123 0
122 -114 -123 0
123 -114 -122 0
122 114 123 0
-123 0
115 124 0
116 124 0
117 124 0
118 124 0
119 124 0
120 124 0
-125 0
124 -126 -127 0
126 -124 -127 0
127 -124 -126 0
126 124 127 0
-127 0
116 128 0
117 128 0
118 128 0
119 128 0
120 128 0
-129 0
128 -130 -131 0
130 -128 -131 0
131 -128 -130 0
130 128 131 0
-131 0
117 132 0
118 132 0
119 132 0
120 132 0
-133 0
132 -134 -135 0
134 -132 -135 0
135 -132 -134 0
134 132 135 0
-135 0
118 136 0
119 136 0
120 136 0
-118 -119 -120 -136 0
136 -137 -138 0
137 -136 -138 0
138 -136 -137 0
137 136 138 0
-138 0
136 -139 -140 0
139 -136 -140 0
140 -136 -139 0
139 136 140 0
-140 0
136 -141 -142 0
141 -136 -142 0
142 -136 -141 0
141 136 142 0
-142 0
143 144 0
145 144 0
146 144 0
147 144 0
148 144 0
149 144 0
-150 0
144 -151 -152 0
151 -144 -152 0
152 -144 -151 0
151 144 152 0
-152 0
145 153 0
146 153 0
147 153 0
148 153 0
149 153 0
-154 0
153 -155 -156 0
155 -153 -156 0
156 -153 -155 0
155 153 156 0
-156 0
146 157 0
147 157 0
148 157 0
149 157 0
-158 0
157 -159 -160 0
159 -157 -160 0
160 -157 -159 0
159 157 160 0
-160 0
157 -161 -162 0
161 -157 -162 0
162 -157 -161 0
161 157 162 0
-162 0
157 -163 -164 0
163 -157 -164 0
164 -157 -163 0
163 157 164 0
-164 0
157 -165 -166 0
165 -157 -166 0
166 -157 -165 0
165 157 166 0
-166 0
167 168 0
169 168 0
170 168 0
171 168 0
172 168 0
173 168 0
174 168 0
-175 0
168 -176 -177 0
176 -168 -177 0
177 -168 -176 0
176 168 177 0
-177 0
169 178 0
170 178 0
171 178 0
172 178 0
173 178 0
174 178 0
-179 0
178 -180 -181 0
180 -178 -181 0
181 -178 -180 0
180 178 181 0
-181 0
170 182 0
171 182 0
172 182 0
173 182 0
174 182 0
-183 0
182 -184 -185 0
184 -182 -185 0
185 -182 -184 0
184 182 185 0
-185 0
171 186 0
172 186 0
173 186 0
174 186 0
-187 0
186 -188 -189 0
188 -186 -189 0
189 -186 -188 0
188 186 189 0
-189 0
186 -190 -191 0
190 -186 -191 0
191 -186 -190 0
190 186 191 0
-191 0
186 -192 -193 0
192 -186 -193 0
193 -186 -192 0
192 186 193 0
-193 0
186 -194 -195 0
194 -186 -195 0
195 -186 -194 0
194 186 195 0
-195 0
196 197 0
198 197 0
199 197 0
200 197 0
201 197 0
-202 0
-203 197 -204 0
203 -197 -204 0
204 -197 -203 0
203 197 204 0
-204 0
198 205 0
199 205 0
200 205 0
201 205 0
-206 0
205 -207 -208 0
207 -205 -208 0
208 -205 -207 0
207 205 208 0
-208 0
199 209 0
200 209 0
201 209 0
-199 -200 -201 -209 0
209 -210 -211 0
210 -209 -211 0
211 -209 -210 0
210 209 211 0
-211 0
209 -212 -213 0
212 -209 -213 0
213 -209 -212 0
212 209 213 0
-213 0
209 -214 -215 0
214 -209 -215 0
215 -209 -214 0
214 209 215 0
-215 0
216 217 0
218 217 0
219 217 0
220 217 0
221 217 0
222 217 0
223 217 0
224 217 0
-225 0
-226 217 -227 0
226 -217 -227 0
227 -217 -226 0
226 217 227 0
-227 0
218 228 0
219 228 0
220 228 0
221 228 0
222 228 0
223 228 0
224 228 0
-229 0
228 -230 -231 0
230 -228 -231 0
231 -228 -230 0
230 228 231 0
-231 0
219 232 0
220 232 0
221 232 0
222 232 0
223 232 0
224 232 0
-233 0
232 -234 -235 0
234 -232 -235 0
235 -232 -234 0
234 232 235 0
-235 0
220 236 0
221 236 0
222 236 0
223 236 0
224 236 0
-237 0
236 -238 -239 0
238 -236 -239 0
239 -236 -238 0
238 236 239 0
-239 0
221 240 0
222 240 0
223 240 0
224 240 0
-241 0
240 -242 -243 0
242 -240 -243 0
243 -240 -242 0
242 240 243 0
-243 0
240 -244 -245 0
244 -240 -245 0
245 -240 -244 0
244 240 245 0
-245 0
240 -246 -247 0
246 -240 -247 0
247 -240 -246 0
246 240 247 0
-247 0
240 -248 -249 0
248 -240 -249 0
249 -240 -248 0
248 240 249 0
-249 0
250 251 0
252 251 0
253 251 0
254 251 0
255 251 0
256 251 0
257 251 0
-258 0
-259 251 -260 0
259 -251 -260 0
260 -251 -259 0
259 251 260 0
-260 0
252 261 0
253 261 0
254 261 0
255 261 0
256 261 0
257 261 0
-262 0
261 -263 -264 0
263 -261 -264 0
264 -261 -263 0
263 261 264 0
-264 0
253 265 0
254 265 0
255 265 0
256 265 0
257 265 0
-266 0
265 -267 -268 0
267 -265 -268 0
268 -265 -267 0
267 265 268 0
-268 0
254 269 0
255 269 0
256 269 0
257 269 0
-270 0
269 -271 -272 0
271 -269 -272 0
272 -269 -271 0
271 269 272 0
-272 0
269 -273 -274 0
273 -269 -274 0
274 -269 -273 0
273 269 274 0
-274 0
269 -275 -276 0
275 -269 -276 0
276 -269 -275 0
275 269 276 0
-276 0
269 -277 -278 0
277 -269 -278 0
278 -269 -277 0
277 269 278 0
-278 0
279 280 0
281 280 0
282 280 0
283 280 0
284 280 0
285 280 0
286 280 0
-287 0
-288 280 -289 0
288 -280 -289 0
289 -280 -288 0
288 280 289 0
-289 0
281 290 0
282 290 0
283 290 0
284 290 0
285 290 0
286 290 0
-291 0
290 -292 -293 0
292 -290 -293 0
293 -290 -292 0
292 290 293 0
-293 0
282 294 0
283 294 0
284 294 0
285 294 0
286 294 0
-295 0
294 -296 -297 0
296 -294 -297 0
297 -294 -296 0
296 294 297 0
-297 0
283 298 0
284 298 0
285 298 0
286 298 0
-299 0
298 -300 -301 0
300 -298 -301 0
301 -298 -300 0
300 298 301 0
-301 0
298 -302 -303 0
302 -298 -303 0
303 -298 -302 0
302 298 303 0
-303 0
298 -304 -305 0
304 -298 -305 0
305 -298 -304 0
304 298 305 0
-305 0
298 -306 -307 0
306 -298 -307 0
307 -298 -306 0
306 298 307 0
-307 0
308 309 0
310 309 0
311 309 0
312 309 0
313 309 0
314 309 0
-315 0
-316 309 -317 0
316 -309 -317 0
317 -309 -316 0
316 309 317 0
-317 0
310 318 0
311 318 0
312 318 0
313 318 0
314 318 0
-319 0
318 -320 -321 0
320 -318 -321 0
321 -318 -320 0
320 318 321 0
-321 0
311 322 0
312 322 0
313 322 0
314 322 0
-323 0
322 -324 -325 0
324 -322 -325 0
325 -322 -324 0
324 322 325 0
-325 0
312 326 0
313 326 0
314 326 0
-312 -313 -314 -326 0
326 -327 -328 0
327 -326 -328 0
328 -326 -327 0
327 326 328 0
-328 0
313 329 0
314 329 0
-313 -314 -329 0
329 -330 -331 0
330 -329 -331 0
331 -329 -330 0
330 329 331 0
-331 0
329 -332 -333 0
332 -329 -333 0
333 -329 -332 0
332 329 333 0
-333 0
334 335 0
336 335 0
337 335 0
338 335 0
339 335 0
340 335 0
341 335 0
-342 0
-343 335 -344 0
343 -335 -344 0
344 -335 -343 0
343 335 344 0
-344 0
336 345 0
337 345 0
338 345 0
339 345 0
340 345 0
341 345 0
-346 0
345 -347 -348 0
347 -345 -348 0
348 -345 -347 0
347 345 348 0
-348 0
337 349 0
338 349 0
339 349 0
340 349 0
341 349 0
-350 0
349 -351 -352 0
351 -349 -352 0
352 -349 -351 0
351 349 352 0
-352 0
338 353 0
339 353 0
340 353 0
341 353 0
-354 0
353 -355 -356 0
355 -353 -356 0
356 -353 -355 0
355 353 356 0
-356 0
339 357 0
340 357 0
341 357 0
-339 -340 -341 -357 0
357 -358 -359 0
358 -357 -359 0
359 -357 -358 0
358 357 359 0
-359 0
357 -360 -361 0
360 -357 -361 0
361 -357 -360 0
360 357 361 0
-361 0
357 -362 -363 0
362 -357 -363 0
363 -357 -362 0
362 357 363 0
-363 0
364 365 0
366 365 0
367 365 0
368 365 0
369 365 0
370 365 0
-371 0
-372 365 -373 0
372 -365 -373 0
373 -365 -372 0
372 365 373 0
-373 0
366 374 0
367 374 0
368 374 0
369 374 0
370 374 0
-375 0
374 -376 -377 0
376 -374 -377 0
377 -374 -376 0
376 374 377 0
-377 0
367 378 0
368 378 0
369 378 0
370 378 0
-379 0
378 -380 -381 0
380 -378 -381 0
381 -378 -380 0
380 378 381 0
-381 0
378 -382 -383 0
382 -378 -383 0
383 -378 -382 0
382 378 383 0
-383 0
378 -384 -385 0
384 -378 -385 0
385 -378 -384 0
384 378 385 0
-385 0
378 -386 -387 0
386 -378 -387 0
387 -378 -386 0
386 378 387 0
-387 0
388 389 0
390 389 0
391 389 0
392 389 0
393 389 0
394 389 0
395 389 0
-396 0
-397 389 -398 0
397 -389 -398 0
398 -389 -397 0
397 389 398 0
-398 0
390 399 0
391 399 0
392 399 0
393 399 0
394 399 0
395 399 0
-400 0
399 -401 -402 0
401 -399 -402 0
402 -399 -401 0
401 399 402 0
-402 0
391 403 0
392 403 0
393 403 0
394 403 0
395 403 0
-404 0
403 -405 -406 0
405 -403 -406 0
406 -403 -405 0
405 403 406 0
-406 0
392 407 0
393 407 0
394 407 0
395 407 0
-408 0
407 -409 -410 0
409 -407 -410 0
410 -407 -409 0
409 407 410 0
-410 0
393 411 0
394 411 0
395 411 0
-393 -394 -395 -411 0
411 -412 -413 0
412 -411 -413 0
413 -411 -412 0
412 411 413 0
-413 0
411 -414 -415 0
414 -411 -415 0
415 -411 -414 0
414 411 415 0
-415 0
411 -416 -417 0
416 -411 -417 0
417 -411 -416 0
416 411 417 0
-417 0
418 419 0
420 419 0
421 419 0
422 419 0
423 419 0
424 419 0
-425 0
-426 419 -427 0
426 -419 -427 0
427 -419 -426 0
426 419 427 0
-427 0
420 428 0
421 428 0
422 428 0
423 428 0
424 428 0
-429 0
428 -430 -431 0
430 -428 -431 0
431 -428 -430 0
430 428 431 0
-431 0
421 432 0
422 432 0
423 432 0
424 432 0
-433 0
432 -434 -435 0
434 -432 -435 0
435 -432 -434 0
434 432 435 0
-435 0
422 436 0
423 436 0
424 436 0
-422 -423 -424 -436 0
436 -437 -438 0
437 -436 -438 0
438 -436 -437 0
437 436 438 0
-438 0
436 -439 -440 0
439 -436 -440 0
440 -436 -439 0
439 436 440 0
-440 0
436 -441 -442 0
441 -436 -442 0
442 -436 -441 0
441 436 442 0
-442 0
443 444 0
445 444 0
446 444 0
447 444 0
448 444 0
449 444 0
-450 0
-451 444 -452 0
451 -444 -452 0
452 -444 -451 0
451 444 452 0
-452 0
445 453 0
446 453 0
447 453 0
448 453 0
449 453 0
-454 0
453 -455 -456 0
455 -453 -456 0
456 -453 -455 0
455 453 456 0
-456 0
446 457 0
447 457 0
448 457 0
449 457 0
-458 0
457 -459 -460 0
459 -457 -460 0
460 -457 -459 0
459 457 460 0
-460 0
447 461 0
448 461 0
449 461 0
-447 -448 -449 -461 0
461 -462 -463 0
462 -461 -463 0
463 -461 -462 0
462 461 463 0
-463 0
461 -464 -465 0
464 -461 -465 0
465 -461 -464 0
464 461 465 0
-465 0
461 -466 -467 0
466 -461 -467 0
467 -461 -466 0
466 461 467 0
-467 0
468 -469 0
470 468 0
469 -470 -468 0
1 -468 0
-1 468 0
471 -472 0
473 471 0
472 -473 -471 0
3 -471 0
-3 471 0
474 -475 0
476 474 0
475 -476 -474 0
4 -474 0
-4 474 0
477 -478 0
479 477 0
478 -479 -477 0
12 -477 0
-12 477 0
480 -481 0
482 480 0
481 -482 -480 0
14 -480 0
-14 480 0
483 -484 0
485 483 0
484 -485 -483 0
15 -483 0
-15 483 0
486 -487 0
488 486 0
487 -488 -486 0
22 -486 0
-22 486 0
489 -490 0
491 489 0
490 -491 -489 0
24 -489 0
-24 489 0
492 -493 0
494 492 0
493 -494 -492 0
25 -492 0
-25 492 0
495 -496 0
497 495 0
496 -497 -495 0
26 -495 0
-26 495 0
498 -499 0
500 498 0
499 -500 -498 0
27 -498 0
-27 498 0
501 -502 0
503 501 0
502 -503 -501 0
28 -501 0
-28 501 0
504 -505 0
506 504 0
505 -506 -504 0
29 -504 0
-29 504 0
507 -508 0
509 507 0
508 -509 -507 0
52 -507 0
-52 507 0
510 -511 0
512 510 0
511 -512 -510 0
54 -510 0
-54 510 0
513 -514 0
515 513 0
514 -515 -513 0
55 -513 0
-55 513 0
516 -517 0
518 516 0
517 -518 -516 0
62 -516 0
-62 516 0
519 -520 0
521 519 0
520 -521 -519 0
64 -519 0
-64 519 0
522 -523 0
524 522 0
523 -524 -522 0
68 -522 0
-68 522 0
525 -526 0
527 525 0
526 -527 -525 0
70 -525 0
-70 525 0
528 -529 0
530 528 0
529 -530 -528 0
71 -528 0
-71 528 0
531 -532 0
533 531 0
532 -533 -531 0
72 -531 0
-72 531 0
534 -535 0
536 534 0
535 -536 -534 0
73 -534 0
-73 534 0
537 -538 0
539 537 0
538 -539 -537 0
74 -537 0
-74 537 0
540 -541 0
542 540 0
541 -542 -540 0
93 -540 0
-93 540 0
543 -544 0
545 543 0
544 -545 -543 0
95 -543 0
-95 543 0
546 -547 0
548 546 0
547 -548 -546 0
96 -546 0
-96 546 0
549 -550 0
551 549 0
550 -551 -549 0
97 -549 0
-97 549 0
552 -553 0
554 552 0
553 -554 -552 0
98 -552 0
-98 552 0
555 -556 0
557 555 0
556 -557 -555 0
113 -555 0
-113 555 0
558 -559 0
560 558 0
559 -560 -558 0
115 -558 0
-115 558 0
561 -562 0
563 561 0
562 -563 -561 0
116 -561 0
-116 561 0
564 -565 0
566 564 0
565 -566 -564 0
117 -564 0
-117 564 0
567 -568 0
569 567 0
568 -569 -567 0
118 -567 0
-118 567 0
570 -571 0
572 570 0
571 -572 -570 0
119 -570 0
-119 570 0
573 -574 0
575 573 0
574 -575 -573 0
120 -573 0
-120 573 0
576 -577 0
578 576 0
577 -578 -576 0
143 -576 0
-143 576 0
579 -580 0
581 579 0
580 -581 -579 0
145 -579 0
-145 579 0
582 -583 0
584 582 0
583 -584 -582 0
146 -582 0
-146 582 0
585 -586 0
587 585 0
586 -587 -585 0
147 -585 0
-147 585 0
588 -589 0
590 588 0
589 -590 -588 0
148 -588 0
-148 588 0
591 -592 0
593 591 0
592 -593 -591 0
149 -591 0
-149 591 0
594 -595 0
596 594 0
595 -596 -594 0
167 -594 0
-167 594 0
597 -598 0
599 597 0
598 -599 -597 0
169 -597 0
-169 597 0
600 -601 0
602 600 0
601 -602 -600 0
170 -600 0
-170 600 0
603 -604 0
605 603 0
604 -605 -603 0
171 -603 0
-171 603 0
606 -607 0
608 606 0
607 -608 -606 0
172 -606 0
-172 606 0
609 -610 0
611 609 0
610 -611 -609 0
173 -609 0
-173 609 0
612 -613 0
614 612 0
613 -614 -612 0
174 -612 0
-174 612 0
615 -616 0
617 615 0
616 -617 -615 0
196 -615 0
-196 615 0
618 -619 0
620 618 0
619 -620 -618 0
198 -618 0
-198 618 0
621 -622 0
623 621 0
622 -623 -621 0
199 -621 0
-199 621 0
624 -625 0
626 624 0
625 -626 -624 0
200 -624 0
-200 624 0
627 -628 0
629 627 0
628 -629 -627 0
201 -627 0
-201 627 0
630 -631 0
632 630 0
631 -632 -630 0
216 -630 0
-216 630 0
633 -634 0
635 633 0
634 -635 -633 0
218 -633 0
-218 633 0
636 -637 0
638 636 0
637 -638 -636 0
219 -636 0
-219 636 0
639 -640 0
641 639 0
640 -641 -639 0
220 -639 0
-220 639 0
642 -643 0
644 642 0
643 -644 -642 0
221 -642 0
-221 642 0
645 -646 0
647 645 0
646 -647 -645 0
222 -645 0
-222 645 0
648 -649 0
650 648 0
649 -650 -648 0
223 -648 0
-223 648 0
651 -652 0
653 651 0
652 -653 -651 0
224 -651 0
-224 651 0
654 -655 0
656 654 0
655 -656 -654 0
250 -654 0
-250 654 0
657 -658 0
659 657 0
658 -659 -657 0
252 -657 0
-252 657 0
660 -661 0
662 660 0
661 -662 -660 0
253 -660 0
-253 660 0
663 -664 0
665 663 0
664 -665 -663 0
254 -663 0
-254 663 0
666 -667 0
668 666 0
667 -668 -666 0
255 -666 0
-255 666 0
669 -670 0
671 669 0
670 -671 -669 0
256 -669 0
-256 669 0
672 -673 0
674 672 0
673 -674 -672 0
257 -672 0
-257 672 0
675 -676 0
677 675 0
676 -677 -675 0
279 -675 0
-279 675 0
678 -679 0
680 678 0
679 -680 -678 0
281 -678 0
-281 678 0
681 -682 0
683 681 0
682 -683 -681 0
282 -681 0
-282 681 0
684 -685 0
686 684 0
685 -686 -684 0
283 -684 0
-283 684 0
687 -688 0
689 687 0
688 -689 -687 0
284 -687 0
-284 687 0
690 -691 0
692 690 0
691 -692 -690 0
285 -690 0
-285 690 0
693 -694 0
695 693 0
694 -695 -693 0
286 -693 0
-286 693 0
696 -697 0
698 696 0
697 -698 -696 0
308 -696 0
-308 696 0
699 -700 0
701 699 0
700 -701 -699 0
310 -699 0
-310 699 0
702 -703 0
704 702 0
703 -704 -702 0
311 -702 0
-311 702 0
705 -706 0
707 705 0
706 -707 -705 0
312 -705 0
-312 705 0
708 -709 0
710 708 0
709 -710 -708 0
313 -708 0
-313 708 0
711 -712 0
713 711 0
712 -713 -711 0
314 -711 0
-314 711 0
714 -715 0
716 714 0
715 -716 -714 0
334 -714 0
-334 714 0
717 -718 0
719 717 0
718 -719 -717 0
336 -717 0
-336 717 0
720 -721 0
722 720 0
721 -722 -720 0
337 -720 0
-337 720 0
723 -724 0
725 723 0
724 -725 -723 0
338 -723 0
-338 723 0
726 -727 0
728 726 0
727 -728 -726 0
339 -726 0
-339 726 0
729 -730 0
731 729 0
730 -731 -729 0
340 -729 0
-340 729 0
732 -733 0
734 732 0
733 -734 -732 0
341 -732 0
-341 732 0
735 -736 0
737 735 0
736 -737 -735 0
364 -735 0
-364 735 0
738 -739 0
740 738 0
739 -740 -738 0
366 -738 0
-366 738 0
741 -742 0
743 741 0
742 -743 -741 0
367 -741 0
-367 741 0
744 -745 0
746 744 0
745 -746 -744 0
368 -744 0
-368 744 0
747 -748 0
749 747 0
748 -749 -747 0
369 -747 0
-369 747 0
750 -751 0
752 750 0
751 -752 -750 0
370 -750 0
-370 750 0
753 -754 0
755 753 0
754 -755 -753 0
388 -753 0
-388 753 0
756 -757 0
758 756 0
757 -758 -756 0
390 -756 0
-390 756 0
759 -760 0
761 759 0
760 -761 -759 0
391 -759 0
-391 759 0
762 -763 0
764 762 0
763 -764 -762 0
392 -762 0
-392 762 0
765 -766 0
767 765 0
766 -767 -765 0
393 -765 0
-393 765 0
768 -769 0
770 768 0
769 -770 -768 0
394 -768 0
-394 768 0
771 -772 0
773 771 0
772 -773 -771 0
395 -771 0
-395 771 0
774 -775 0
776 774 0
775 -776 -774 0
418 -774 0
-418 774 0
777 -778 0
779 777 0
778 -779 -777 0
420 -777 0
-420 777 0
780 -781 0
782 780 0
781 -782 -780 0
421 -780 0
-421 780 0
783 -784 0
785 783 0
784 -785 -783 0
422 -783 0
-422 783 0
786 -787 0
788 786 0
787 -788 -786 0
423 -786 0
-423 786 0
789 -790 0
791 789 0
790 -791 -789 0
424 -789 0
-424 789 0
792 -793 0
794 792 0
793 -794 -792 0
443 -792 0
-443 792 0
795 -796 0
797 795 0
796 -797 -795 0
445 -795 0
-445 795 0
798 -799 0
800 798 0
799 -800 -798 0
446 -798 0
-446 798 0
801 -802 0
803 801 0
802 -803 -801 0
447 -801 0
-447 801 0
804 -805 0
806 804 0
805 -806 -804 0
448 -804 0
-448 804 0
807 -808 0
809 807 0
808 -809 -807 0
449 -807 0
-449 807 0
470 0
473 0
-476 0
-479 0
482 0
-485 0
488 0
-491 0
494 0
-497 0
-500 0
-503 0
506 0
-509 0
-512 0
515 0
-518 0
521 0
-524 0
527 0
530 0
533 0
536 0
-539 0
-542 0
545 0
548 0
-551 0
-554 0
-557 0
-560 0
-563 0
566 0
569 0
-572 0
-575 0
578 0
581 0
-584 0
587 0
590 0
-593 0
-596 0
-599 0
-602 0
605 0
-608 0
611 0
614 0
617 0
-620 0
-623 0
-626 0
-629 0
-632 0
635 0
-638 0
641 0
-644 0
-647 0
650 0
653 0
656 0
659 0
-662 0
665 0
668 0
-671 0
674 0
-677 0
-680 0
683 0
686 0
-689 0
692 0
695 0
698 0
-701 0
704 0
-707 0
-710 0
-713 0
-716 0
-719 0
722 0
-725 0
728 0
731 0
-734 0
737 0
-740 0
743 0
746 0
-749 0
752 0
-755 0
-758 0
-761 0
764 0
767 0
-770 0
773 0
-776 0
779 0
-782 0
785 0
-788 0
-791 0
-794 0
-797 0
-800 0
803 0
-806 0
809 0
5 0
16 0
31 0
56 0
65 0
76 0
100 0
122 0
151 0
176 0
-203 0
-226 0
-259 0
-288 0
-316 0
-343 0
-372 0
-397 0
-426 0
-451 0
499 -550 0
550 -499 0
502 -553 0
553 -502 0
505 -547 0
547 -505 0
499 -571 0
571 -499 0
502 -574 0
574 -502 0
505 -568 0
568 -505 0
514 -520 0
520 -514 0
544 -565 0
565 -544 0
547 -568 0
568 -547 0
550 -571 0
571 -550 0
553 -574 0
574 -553 0
604 -685 0
685 -604 0
607 -688 0
688 -607 0
610 -691 0
691 -610 0
613 -694 0
694 -613 0
727 -808 0
808 -727 0
730 -802 0
802 -730 0
733 -805 0
805 -733 0
